networks/zoo_35_62/zoo_35_62-lower.sol
<?xml version = "1.0" encoding="UTF-8" standalone="yes"?>
<CPLEXSolution version="1.2">
 <header
   problemName="networks/zoo_35_62/zoo_35_62-lower.lp"
   solutionName="incumbent"
   solutionIndex="-1"
   objectiveValue="11"
   solutionTypeValue="3"
   solutionTypeString="primal"
   solutionStatusValue="101"
   solutionStatusString="integer optimal solution"
   solutionMethodString="mip"
   primalFeasible="1"
   dualFeasible="1"
   MIPNodes="0"
   MIPIterations="0"
   writeLevel="3"/>
 <quality
   epInt="1.0000000000000001e-05"
   epRHS="9.9999999999999995e-07"
   maxIntInfeas="0"
   maxPrimalInfeas="0"
   maxX="1"
   maxSlack="1"/>
 <variables>
  <variable name="Y(1,3)" index="2" value="1"/>
  <variable name="Y(2,13)" index="37" value="1"/>
  <variable name="Y(3,16)" index="67" value="1"/>
  <variable name="Y(4,1)" index="81" value="1"/>
  <variable name="Y(6,4)" index="138" value="1"/>
  <variable name="Y(7,7)" index="167" value="1"/>
  <variable name="Y(8,8)" index="195" value="1"/>
  <variable name="Y(9,12)" index="225" value="1"/>
  <variable name="Y(11,15)" index="282" value="1"/>
  <variable name="Y(13,17)" index="338" value="1"/>
  <variable name="Y(15,2)" index="379" value="1"/>
  <variable name="X(1,2,2)" index="1675" value="1"/>
  <variable name="X(1,3,1)" index="1736" value="1"/>
  <variable name="X(1,19,4)" index="1801" value="1"/>
  <variable name="X(2,1,4)" index="1863" value="1"/>
  <variable name="X(2,4,6)" index="1927" value="1"/>
  <variable name="X(2,7,2)" index="1985" value="1"/>
  <variable name="X(2,20,15)" index="2060" value="1"/>
  <variable name="X(3,1,14)" index="2121" value="1"/>
  <variable name="X(3,21,1)" index="2170" value="1"/>
  <variable name="X(4,2,22)" index="2253" value="1"/>
  <variable name="X(4,22,6)" index="2299" value="1"/>
  <variable name="X(5,13,25)" index="2380" value="1"/>
  <variable name="X(7,2,25)" index="2442" value="1"/>
  <variable name="X(7,13,2)" index="2481" value="1"/>
  <variable name="X(7,25,7)" index="2548" value="1"/>
  <variable name="X(8,13,29)" index="2632" value="1"/>
  <variable name="X(8,26,8)" index="2673" value="1"/>
  <variable name="X(9,13,32)" index="2759" value="1"/>
  <variable name="X(11,12,35)" index="2824" value="1"/>
  <variable name="X(12,13,35)" index="2886" value="1"/>
  <variable name="X(12,30,9)" index="2922" value="1"/>
  <variable name="X(13,7,25)" index="3000" value="1"/>
  <variable name="X(13,8,8)" index="3045" value="1"/>
  <variable name="X(13,12,9)" index="3108" value="1"/>
  <variable name="X(13,16,3)" index="3164" value="1"/>
  <variable name="X(13,17,13)" index="3236" value="1"/>
  <variable name="X(13,31,2)" index="3287" value="1"/>
  <variable name="X(14,16,54)" index="3401" value="1"/>
  <variable name="X(15,33,11)" index="3420" value="1"/>
  <variable name="X(16,13,54)" index="3525" value="1"/>
  <variable name="X(16,15,11)" index="3544" value="1"/>
  <variable name="X(16,34,3)" index="3598" value="1"/>
  <variable name="X(17,13,59)" index="3716" value="1"/>
  <variable name="X(17,35,13)" index="3732" value="1"/>
  <variable name="X(18,13,60)" index="3841" value="1"/>
 </variables>
</CPLEXSolution>
